47
62 31 
48 64 
60 22 
31 64 
62 45 
26 34 
53 34 
67 76 
28 66 
90 67 
84 30 
37 35 
97 42 
32 40 
47 98 
50 74 
51 81 
79 66 
36 32 
68 69 
80 75 
41 75 
79 70 
42 94 
20 90 
85 26 
32 25 
100 73 
92 88 
28 24 
33 91 
53 37 
84 48 38 
51 23 24 
66 46 38 
46 100 35 
59 38 67 
57 80 37 
59 97 21 29 
61 91 79 64 
61 68 21 80 
96 29 27 46 
50 67 45 81 
29 23 29 64 84 
92 64 69 41 36 
76 80 65 83 48 37 
44 90 
